9550
14, 13, 27, 26, 47, 28, 12, 25, 4, 6, 5, 15, 43, 33, 24, 38, 40, 37, 39, 36, 35, 34, 44, 16, 50, 20, 23, 30, 29, 49, 1, 22, 31, 18, 3, 17, 21, 42, 7, 2, 32, 45, 19, 41, 8, 10, 9, 48, 46, 51, 11, 52
